p cnf 12 50 
1 -12 -3 0
10 -4 -9 0
3 -11 9 0
3 -10 -5 0
4 7 10 0
-5 4 -7 0
3 1 4 0
11 -3 10 0
-4 -2 -6 0
5 4 -6 0
-9 -7 10 0
12 -5 7 0
-6 -2 -11 0
4 -7 -5 0
12 10 8 0
5 -7 -4 0
6 -7 1 0
-9 2 5 0
10 -6 -5 0
-11 -1 7 0
-11 6 9 0
7 8 -3 0
3 4 11 0
-7 -10 11 0
-10 -3 11 0
-10 4 12 0
2 10 12 0
1 8 12 0
-11 -7 -5 0
-7 -8 3 0
-4 1 2 0
2 3 10 0
4 11 6 0
-2 11 12 0
8 7 2 0
-7 -10 -8 0
8 5 -12 0
4 11 -3 0
1 10 -2 0
-2 -1 -8 0
5 -2 -9 0
-8 9 4 0
12 -4 5 0
11 -12 -6 0
7 8 -10 0
-10 12 -7 0
9 1 7 0
-7 -6 8 0
3 4 7 0
12 -6 5 0
